c status 86 1469274380989
c status 67 1469274380990
c status 66 1469274381021
c status 65 1469274384836
s td 25 65 96
b 1 24 2 96 13 9 48 53 8 1 23 61 38 21 34 87 82 67 74
b 2 2 7 96 13 9 6 48 50 80 53 8 1 32 23 61 19 38 21 36 34 87 85 59 82 45 67 94 74 65 72
b 3 7 96 13 9 6 48 50 80 53 8 35 46 1 32 33 22 23 61 19 20 38 21 36 34 60 87 85 59 3 82 5 68 45 79 57 90 86 67 94 47 73 74 65 72
b 4 95 51 96 13 48 80 8 83 84 32 66 22 37 63 28 87 89 85 81 82 79 17 86 94 92 93 91
b 5 51 49 96 13 48 50 80 53 8 83 42 41 39 43 84 44 32 66 22 20 37 38 36 63 28 87 89 85 78 81 82 5 45 79 17 86 67 94 92 47 93 91 65
b 6 49 96 13 9 6 48 50 80 53 8 40 83 42 41 39 43 84 44 32 33 66 22 62 20 37 38 36 63 34 28 87 89 85 18 78 81 82 5 45 79 90 17 86 67 94 75 92 47 93 91 65
b 7 96 13 9 6 48 50 80 53 8 40 35 83 42 41 39 43 46 84 1 44 32 33 66 22 23 61 62 19 20 37 38 21 36 63 34 28 60 87 89 85 59 3 18 78 81 82 5 68 45 79 57 90 17 86 67 94 75 92 47 73 74 93 91 65 72
b 8 48 50 80 53 8 40 35 83 42 41 39 43 46 84 1 44 32 33 66 22 23 61 62 19 20 37 38 21 36 63 34 28 60 87 89 85 59 3 18 78 77 81 82 5 68 45 79 57 90 17 86 67 94 75 92 47 73 74 93 91 65 72
b 9 80 53 8 40 35 83 71 42 41 39 43 46 84 70 69 1 44 32 33 66 22 23 61 62 19 20 37 38 21 36 63 34 28 60 87 89 85 59 3 18 78 77 81 82 5 68 45 79 57 90 17 86 67 94 75 92 47 73 74 93 91 65 72
b 10 14 15 10 12 11 30 29 27 4 41 43 22 23 61 19 20 21 54 18 77 68 45 79 57 17 86 58 93 72
b 11 15 10 12 55 11 30 29 27 31 4 42 41 43 69 44 22 23 61 62 19 20 21 54 87 59 18 78 77 68 45 79 57 90 17 86 94 58 47 73 93 72
b 12 25 26 10 11 30 29 27 31 35 83 41 39 69 1 32 33 37 38 36 34 54 87 57 56 72
b 13 26 10 12 55 11 30 29 27 31 4 35 83 42 41 39 46 84 70 69 1 32 33 37 38 36 34 54 87 89 68 57 58 73 56 72
b 14 10 12 55 11 30 29 27 31 4 35 83 42 41 39 43 46 84 70 69 1 44 32 33 22 23 61 62 19 20 37 38 21 36 34 54 87 89 59 18 78 77 68 45 79 57 90 17 86 94 58 47 73 93 56 72
b 15 12 55 11 30 29 27 31 4 35 83 71 42 41 39 43 46 84 70 69 1 44 32 33 22 23 61 62 19 20 37 38 21 36 34 60 54 87 89 85 59 18 78 77 68 45 79 57 90 17 86 94 58 75 92 47 73 93 56 72
b 16 55 11 30 29 27 31 4 35 83 71 42 41 39 43 46 84 70 69 1 44 32 33 66 22 23 61 62 19 20 37 38 21 36 63 34 60 54 87 89 85 59 18 78 77 68 45 79 57 90 17 86 67 94 58 75 92 47 73 93 56 65 72
b 17 11 30 29 27 31 4 35 83 71 42 41 39 43 46 84 70 69 1 44 32 33 66 22 23 61 62 19 20 37 38 21 36 63 34 60 54 87 89 85 59 18 78 77 68 45 79 57 90 17 86 67 94 58 75 92 47 73 74 93 91 56 65 72
b 18 30 29 27 31 4 35 83 71 42 41 39 43 46 84 70 69 1 44 32 33 66 22 23 61 62 19 20 37 38 21 36 63 34 60 54 87 89 85 59 3 18 78 77 68 45 79 57 90 17 86 67 94 58 75 92 47 73 74 93 91 56 65 72
b 19 29 27 31 4 35 83 71 42 41 39 43 46 84 70 69 1 44 32 33 66 22 23 61 62 19 20 37 38 21 36 63 34 28 60 54 87 89 85 59 3 18 78 77 68 45 79 57 90 17 86 67 94 58 75 92 47 73 74 93 91 56 65 72
b 20 16 76 88 27 31 4 40 64 71 42 1 62 28 85 78 52 94 47 56
b 21 76 88 27 31 4 40 64 83 71 42 1 62 28 85 78 77 52 94 92 47 56
b 22 88 27 31 4 40 64 83 71 42 1 62 28 85 78 77 52 94 92 47 93 56
b 23 27 31 4 40 64 35 83 71 42 41 39 43 46 84 70 69 1 44 32 33 66 22 23 61 62 19 20 37 38 21 36 63 34 28 60 54 87 89 85 59 3 18 78 77 68 52 45 79 57 90 17 86 67 94 58 75 92 47 73 74 93 91 56 65 72
b 24 31 4 40 64 35 83 71 42 41 39 43 46 84 70 69 1 44 32 33 66 22 23 61 62 19 20 37 38 21 36 63 34 28 60 54 87 89 85 59 3 18 78 77 5 68 52 45 79 57 90 17 86 67 94 58 75 92 47 73 74 93 91 56 65 72
b 25 40 64 35 83 71 42 41 39 43 46 84 70 69 1 44 32 33 66 22 23 61 62 19 20 37 38 21 36 63 34 28 60 54 87 89 85 59 3 18 78 77 81 82 5 68 52 45 79 57 90 17 86 67 94 58 75 92 47 73 74 93 91 56 65 72
1 2
2 3
3 7
7 8
8 9
9 25
25 24
24 23
23 19
19 18
18 17
17 16
16 15
15 14
7 6
6 5
14 11
14 13
11 10
5 4
13 12
23 22
22 21
21 20
